
******************************************************************************
This program contains Ipopt, a library for large-scale nonlinear optimization.
 Ipopt is released as open source code under the Eclipse Public License (EPL).
         For more information visit https://github.com/coin-or/Ipopt
******************************************************************************

This is Ipopt version 3.13.4, running with linear solver ma27.

Number of nonzeros in equality constraint Jacobian...:     8248
Number of nonzeros in inequality constraint Jacobian.:        0
Number of nonzeros in Lagrangian Hessian.............:        0

Total number of variables............................:      810
                     variables with only lower bounds:      270
                variables with lower and upper bounds:      270
                     variables with only upper bounds:        0
Total number of equality constraints.................:      746
Total number of inequality constraints...............:        0
        inequality constraints with only lower bounds:        0
   inequality constraints with lower and upper bounds:        0
        inequality constraints with only upper bounds:        0

iter    objective    inf_pr   inf_du lg(mu)  ||d||  lg(rg) alpha_du alpha_pr  ls
   0  1.0000000e+01 3.01e+01 1.42e+00   0.0 0.00e+00    -  0.00e+00 0.00e+00   0
   1  1.9805114e+01 2.69e+01 1.13e+02   0.9 1.05e+01    -  7.97e-02 1.17e-01f  1
   2  3.1103317e+01 2.13e+01 1.70e+02   0.8 1.18e+01    -  9.96e-01 2.45e-01f  1
   3  3.3328334e+01 1.86e+01 5.52e+02   0.1 1.20e+01    -  4.92e-01 1.43e-01h  1
   4  4.9160576e+01 1.20e+01 1.34e+03  -0.1 2.06e+01    -  2.87e-01 5.26e-01f  1
   5  4.7684349e+01 8.91e+00 1.15e+03  -1.7 1.62e+01    -  4.22e-01 2.95e-01h  1
   6  5.8461326e+01 6.25e+00 2.19e+02  -0.2 8.87e+00    -  3.69e-01 5.11e-01h  1
   7  5.8067839e+01 6.41e+00 1.01e+02  -5.9 6.57e+00    -  2.80e-01 5.53e-01h  1
   8  5.8150496e+01 4.82e+00 1.18e+02  -1.6 5.84e+00    -  2.71e-01 4.96e-01h  1
   9  5.9823224e+01 2.80e+00 1.94e+02  -1.1 7.58e+00    -  3.19e-01 5.41e-01h  1
iter    objective    inf_pr   inf_du lg(mu)  ||d||  lg(rg) alpha_du alpha_pr  ls
  10  6.2041727e+01 2.28e+00 2.51e+02   0.1 4.04e+01    -  6.42e-01 1.20e-01f  1
  11  6.6052277e+01 1.01e+00 1.32e+02  -0.3 1.49e+01    -  6.45e-01 5.59e-01h  1
  12  6.7798425e+01 1.43e+00 9.37e+01  -0.6 5.15e+00    -  9.94e-01 6.70e-01h  1
  13  6.6897698e+01 3.12e-01 1.33e+00  -1.1 3.37e-01    -  9.97e-01 1.00e+00h  1
  14  4.7295115e+01 2.21e+00 2.23e+01  -7.1 3.08e+00    -  2.51e-01 1.00e+00f  1
  15  5.5251443e+01 3.26e+00 2.52e+00  -0.7 4.21e+00    -  1.00e+00 1.00e+00f  1
  16  5.0597502e+01 3.45e+00 3.91e+00  -0.7 5.68e+00    -  7.04e-01 9.63e-01f  1
  17  4.6104342e+01 3.92e+00 4.21e+00  -0.7 1.02e+01    -  5.05e-01 9.39e-01f  1
  18  3.9394018e+01 3.24e+00 5.45e+00  -1.8 1.98e+01    -  4.79e-01 1.00e+00f  1
  19  4.1761553e+01 9.09e-01 1.15e+00  -1.1 1.33e+01    -  9.21e-01 1.00e+00f  1
iter    objective    inf_pr   inf_du lg(mu)  ||d||  lg(rg) alpha_du alpha_pr  ls
  20  3.9575527e+01 2.00e-01 3.56e-01  -1.5 6.16e+00    -  1.00e+00 1.00e+00h  1
  21  3.7663649e+01 4.99e-01 4.40e-01  -1.8 1.47e+01    -  1.00e+00 6.15e-01h  1
  22  3.6860077e+01 2.49e-01 6.20e-01  -1.9 1.62e+01    -  8.14e-01 1.00e+00h  1
  23  3.5976729e+01 3.29e-01 1.82e-01  -2.2 2.29e+01    -  1.00e+00 9.08e-01h  1
  24  3.5301680e+01 2.97e-01 2.65e-01  -2.4 2.65e+01    -  1.00e+00 9.66e-01h  1
  25  3.5516259e+01 7.90e-01 4.90e-01  -2.1 3.32e+01    -  1.00e+00 1.00e+00h  1
  26  3.5404923e+01 2.61e-01 2.31e-01  -2.2 1.21e+01    -  1.00e+00 1.00e+00h  1
  27  3.4847202e+01 5.85e-02 2.24e-01  -2.6 8.07e+00    -  9.88e-01 1.00e+00h  1
  28  3.4736238e+01 7.75e-02 3.04e-01  -2.6 6.58e+01    -  9.04e-01 3.11e-01h  1
  29  3.4668058e+01 1.81e-01 3.81e-01  -2.6 8.88e+01    -  9.30e-01 3.23e-01h  1
iter    objective    inf_pr   inf_du lg(mu)  ||d||  lg(rg) alpha_du alpha_pr  ls
  30  3.4546800e+01 2.06e-01 4.88e-01  -2.7 6.06e+01    -  5.48e-01 2.62e-01h  1
  31  3.4374719e+01 1.21e-01 5.44e-01  -2.8 4.33e+01    -  4.60e-01 4.68e-01h  1
  32  3.4328435e+01 4.71e-01 6.26e-01  -2.5 6.75e+01    -  2.51e-01 5.73e-01h  1
  33  3.4274835e+01 2.53e-01 4.16e-01  -2.4 2.01e-01    -  4.42e-01 4.60e-01h  1
  34  3.4186011e+01 1.91e-01 1.37e+00  -2.5 7.91e-01    -  6.13e-01 2.46e-01h  1
  35  3.3988518e+01 1.36e-01 2.01e+00  -2.8 3.36e+00    -  6.79e-01 2.89e-01h  1
  36  3.3907232e+01 2.26e-03 1.15e+00  -2.8 1.23e+00    -  7.45e-01 1.00e+00h  1
  37  3.4099938e+01 2.01e-01 1.02e+00  -2.1 3.60e+01    -  2.76e-01 4.41e-01f  1
  38  3.3931501e+01 3.47e-01 6.41e-01  -2.6 5.45e+01    -  3.64e-01 3.21e-01h  1
  39  3.3681575e+01 5.98e-01 2.73e-01  -2.6 6.30e+01    -  2.10e-01 1.00e+00h  1
iter    objective    inf_pr   inf_du lg(mu)  ||d||  lg(rg) alpha_du alpha_pr  ls
  40  3.4027348e+01 3.04e-01 1.53e-01  -2.3 4.51e+01    -  4.78e-01 9.87e-01h  1
  41  3.3732791e+01 5.31e-02 8.08e-02  -2.5 2.97e+01    -  9.71e-01 1.00e+00h  1
  42  3.3463606e+01 8.21e-02 1.03e-01  -2.8 1.50e+01    -  1.00e+00 8.52e-01h  1
  43  3.3324442e+01 1.69e-01 1.65e-01  -2.9 4.04e+01    -  1.00e+00 9.28e-01h  1
  44  3.3239254e+01 2.11e-02 9.79e-02  -3.1 1.69e+01    -  1.00e+00 1.00e+00h  1
  45  3.3171942e+01 5.42e-02 1.27e-01  -3.3 2.66e+01    -  1.00e+00 9.52e-01h  1
  46  3.3168977e+01 1.08e-01 1.51e-01  -3.1 2.59e+01    -  8.94e-01 4.75e-01h  1
  47  3.3176123e+01 5.54e-02 8.95e-01  -2.9 5.30e-02    -  1.00e+00 4.86e-01h  1
  48  3.3151663e+01 3.28e-03 8.05e-02  -3.0 5.91e-01    -  1.00e+00 9.29e-01h  1
  49  3.3076109e+01 6.89e-03 4.12e-01  -3.5 8.39e+00    -  1.00e+00 6.00e-01h  1
iter    objective    inf_pr   inf_du lg(mu)  ||d||  lg(rg) alpha_du alpha_pr  ls
  50  3.3134870e+01 9.53e-02 9.45e-01  -2.9 2.04e+01    -  2.75e-01 1.00e+00h  1
  51  3.3043585e+01 8.29e-03 8.48e-02  -3.3 4.60e+00    -  1.00e+00 1.00e+00h  1
  52  3.3092741e+01 4.26e-01 5.07e-02  -3.0 3.74e+01    -  9.18e-01 1.00e+00h  1
  53  3.3058991e+01 6.07e-02 1.22e-01  -3.1 6.44e+00    -  1.00e+00 1.00e+00h  1
  54  3.3062059e+01 3.53e-03 1.12e-01  -3.1 2.34e+00    -  1.00e+00 1.00e+00h  1
  55  3.3001814e+01 6.93e-02 1.53e-01  -3.5 1.42e+01    -  9.99e-01 7.40e-01h  1
  56  3.3007191e+01 4.88e-02 1.12e-01  -3.2 7.82e+00    -  1.00e+00 1.00e+00h  1
  57  3.2988647e+01 1.66e-02 1.04e-01  -3.2 5.46e+00    -  1.00e+00 9.88e-01h  1
  58  3.2969900e+01 7.57e-06 1.63e-02  -3.8 1.63e-02    -  1.00e+00 1.00e+00h  1
  59  3.2961253e+01 8.86e-05 6.68e-01  -3.5 1.87e-01    -  1.00e+00 6.43e-01h  1
iter    objective    inf_pr   inf_du lg(mu)  ||d||  lg(rg) alpha_du alpha_pr  ls
  60  3.2976052e+01 8.24e-04 2.37e-01  -3.3 2.58e+00    -  1.00e+00 7.23e-01f  1
  61  3.2959336e+01 3.36e-03 5.72e-01  -3.4 1.03e+01    -  5.77e-01 1.00e+00h  1
  62  3.2942395e+01 1.65e-02 1.33e-01  -3.5 1.71e+01    -  6.98e-01 6.14e-01h  1
  63  3.2919629e+01 3.54e-02 4.97e-02  -3.8 1.18e+01    -  9.22e-01 6.32e-01h  1
  64  3.2897493e+01 1.14e-01 1.68e-02  -4.3 2.42e+01    -  5.79e-01 5.99e-01h  1
  65  3.2885968e+01 9.07e-03 4.81e-02  -4.4 8.01e+00    -  6.63e-01 9.86e-01h  1
  66  3.2882503e+01 7.85e-02 4.73e-03  -4.5 2.38e+01    -  1.00e+00 9.96e-01h  1
  67  3.2879702e+01 1.40e-02 1.68e-03  -5.1 6.50e+00    -  1.00e+00 1.00e+00h  1
  68  3.2879394e+01 1.81e-03 6.23e-04  -5.2 6.82e+00    -  9.98e-01 1.00e+00h  1
  69  3.2878721e+01 4.68e-03 1.00e-03  -5.7 2.54e+01    -  1.00e+00 9.98e-01h  1
iter    objective    inf_pr   inf_du lg(mu)  ||d||  lg(rg) alpha_du alpha_pr  ls
  70  3.2879275e+01 3.10e-03 1.10e-02  -5.2 1.85e+01    -  9.09e-01 1.00e+00h  1
  71  3.2879053e+01 8.92e-03 1.04e-03  -5.3 1.47e+01    -  1.00e+00 1.00e+00h  1
  72  3.2878761e+01 2.31e-06 3.38e-03  -5.7 3.38e-03    -  9.98e-01 1.00e+00h  1
  73  3.2878765e+01 1.96e-06 2.50e-01  -5.4 3.39e-02    -  1.00e+00 1.48e-01h  1
  74  3.2878732e+01 5.54e-07 8.74e-05  -5.5 2.52e-02    -  1.00e+00 1.00e+00h  1

Number of Iterations....: 74

                                   (scaled)                 (unscaled)
Objective...............:   3.2878732190478800e+01    3.2878732190478800e+01
Dual infeasibility......:   8.7439774997463490e-05    8.7439774997463490e-05
Constraint violation....:   5.5358637824993011e-07    5.5358637824993011e-07
Complementarity.........:   4.5740015225627204e-06    4.5740015225627204e-06
Overall NLP error.......:   8.7439774997463490e-05    8.7439774997463490e-05


Number of objective function evaluations             = 75
Number of objective gradient evaluations             = 75
Number of equality constraint evaluations            = 75
Number of inequality constraint evaluations          = 0
Number of equality constraint Jacobian evaluations   = 75
Number of inequality constraint Jacobian evaluations = 0
Number of Lagrangian Hessian evaluations             = 0
Total CPU secs in IPOPT (w/o function evaluations)   =      0.726
Total CPU secs in NLP function evaluations           =     10.413

EXIT: Optimal Solution Found.
